(declare-var |_11_0| Int)
(declare-var |_11_1| Int)
(declare-var |_a_6_0| (Array Int Int))
(declare-var |_elem_8_0| Int)
(declare-var |_n_3_0| Int)
(declare-var |bIndex_40_0| Int)
(declare-var |bIndex_40_1| Int)
(declare-var |balances_0| (Array Int Int))
(declare-var |error_abstract_1| Int)
(declare-var |expr_102_0| Bool)
(declare-var |expr_104_0| Bool)
(declare-var |expr_105_1| Bool)
(declare-var |expr_106_0| Int)
(declare-var |expr_107_0| Int)
(declare-var |expr_108_1| Bool)
(declare-var |expr_109_0| Bool)
(declare-var |expr_110_0| (Array Int Int))
(declare-var |expr_111_0| Int)
(declare-var |expr_112_1| Int)
(declare-var |expr_113_0| Int)
(declare-var |expr_114_1| Bool)
(declare-var |expr_116_0| Bool)
(declare-var |expr_117_1| Bool)
(declare-var |expr_121_1| Int)
(declare-var |expr_127_0| Bool)
(declare-var |expr_129_0| Int)
(declare-var |expr_130_0| Int)
(declare-var |expr_131_1| Bool)
(declare-var |expr_135_0| Int)
(declare-var |expr_14_0| Int)
(declare-var |expr_15_0| Int)
(declare-var |expr_16_1| Bool)
(declare-var |expr_21_0| Int)
(declare-var |expr_23_0| Int)
(declare-var |expr_24_0| Int)
(declare-var |expr_25_1| Bool)
(declare-var |expr_27_0| (Array Int Int))
(declare-var |expr_28_0| Int)
(declare-var |expr_29_1| Int)
(declare-var |expr_30_0| (Array Int Int))
(declare-var |expr_31_0| Int)
(declare-var |expr_32_0| Int)
(declare-var |expr_33_1| Int)
(declare-var |expr_34_1| Int)
(declare-var |expr_35_1| Bool)
(declare-var |expr_41_0| Int)
(declare-var |expr_45_0| Int)
(declare-var |expr_49_0| Int)
(declare-var |expr_51_0| Int)
(declare-var |expr_52_0| Int)
(declare-var |expr_53_1| Bool)
(declare-var |expr_56_0| Int)
(declare-var |expr_57_0| Int)
(declare-var |expr_58_1| Int)
(declare-var |expr_59_1| Int)
(declare-var |expr_60_0| Int)
(declare-var |expr_61_1| Int)
(declare-var |expr_63_0| (Array Int Int))
(declare-var |expr_64_0| Int)
(declare-var |expr_65_1| Int)
(declare-var |expr_66_0| Int)
(declare-var |expr_67_1| Bool)
(declare-var |expr_69_0| Int)
(declare-var |expr_70_1| Int)
(declare-var |expr_73_0| Int)
(declare-var |expr_74_1| Int)
(declare-var |expr_77_0| (Array Int Int))
(declare-var |expr_78_0| Int)
(declare-var |expr_79_1| Int)
(declare-var |expr_80_0| Int)
(declare-var |expr_81_1| Bool)
(declare-var |expr_83_0| Int)
(declare-var |expr_84_1| Int)
(declare-var |expr_88_0| Int)
(declare-var |expr_89_1| Int)
(declare-var |expr_98_0| Int)
(declare-var |found_101_0| Bool)
(declare-var |found_101_1| Bool)
(declare-var |i_20_0| Int)
(declare-var |i_20_1| Int)
(declare-var |lIndex_97_0| Int)
(declare-var |lIndex_97_1| Int)
(declare-var |left_44_0| Int)
(declare-var |left_44_1| Int)
(declare-var |m_55_0| Int)
(declare-var |m_55_1| Int)
(declare-var |right_48_0| Int)
(declare-var |right_48_1| Int)
(declare-var |this_0| Int)
(declare-rel |interface_C_139_0| ())
(declare-rel |error_0| ())
(declare-rel |constructor_C_139_0| ())
(rule (! constructor_C_139_0 :named constructor_C_139))
(rule (! (implies (and (and constructor_C_139_0 true) true) interface_C_139_0) :named constructor_C_139_0_to_interface_C_139_0))
(declare-rel |block_0_function_bsearch_138_0| (Int (Array Int Int) Int Int ))
(declare-rel |block_1_137_0| (Int (Array Int Int) Int Int Int Int Int Int Int Int Bool ))
(rule (! (implies (and (and interface_C_139_0 true) true) (block_0_function_bsearch_138_0 _n_3_0 _a_6_0 _elem_8_0 _11_0)) :named interface_C_139_0_to_block_0_function_bsearch_138_0))
(rule (! (implies (and (and (block_0_function_bsearch_138_0 _n_3_0 _a_6_0 _elem_8_0 _11_0) true) true) (block_1_137_0 _n_3_0 _a_6_0 _elem_8_0 _11_0 i_20_0 bIndex_40_0 left_44_0 right_48_0 m_55_0 lIndex_97_0 found_101_0)) :named block_0_function_bsearch_138_0_to_block_1_137_0))
(declare-rel |block_2_while_header_38_0| (Int (Array Int Int) Int Int Int Int Int Int Int Int Bool ))
(declare-rel |block_3_while_body_37_0| (Int (Array Int Int) Int Int Int Int Int Int Int Int Bool ))
(declare-rel |block_4_137_0| (Int (Array Int Int) Int Int Int Int Int Int Int Int Bool ))
(rule (! (implies (and (and (block_1_137_0 _n_3_0 _a_6_0 _elem_8_0 _11_0 i_20_0 bIndex_40_0 left_44_0 right_48_0 m_55_0 lIndex_97_0 found_101_0) (and (= i_20_1 expr_21_0) (and (= expr_21_0 1) (and (implies true expr_16_1) (and (= expr_16_1 (> expr_14_0 expr_15_0)) (and (= expr_15_0 0) (and (= expr_14_0 _n_3_0) (and (and (= _11_0 0) (and (<= _elem_8_0 115792089237316195423570985008687907853269984665640564039457584007913129639935) (and (>= _elem_8_0 0) (and (<= _n_3_0 115792089237316195423570985008687907853269984665640564039457584007913129639935) (and (>= _n_3_0 0) (and (= found_101_0 false) (and (= lIndex_97_0 0) (and (= m_55_0 0) (and (= right_48_0 0) (and (= left_44_0 0) (and (= bIndex_40_0 0) (and (= i_20_0 0) true)))))))))))) true)))))))) true) (block_2_while_header_38_0 _n_3_0 _a_6_0 _elem_8_0 _11_0 i_20_1 bIndex_40_0 left_44_0 right_48_0 m_55_0 lIndex_97_0 found_101_0)) :named block_1_137_0_to_block_2_while_header_38_0))
(rule (! (implies (and (and (block_2_while_header_38_0 _n_3_0 _a_6_0 _elem_8_0 _11_0 i_20_0 bIndex_40_0 left_44_0 right_48_0 m_55_0 lIndex_97_0 found_101_0) (and (= expr_25_1 (< expr_23_0 expr_24_0)) (and (= expr_24_0 _n_3_0) (and (= expr_23_0 i_20_0) true)))) expr_25_1) (block_3_while_body_37_0 _n_3_0 _a_6_0 _elem_8_0 _11_0 i_20_0 bIndex_40_0 left_44_0 right_48_0 m_55_0 lIndex_97_0 found_101_0)) :named block_2_while_header_38_0_to_block_3_while_body_37_0))
(rule (! (implies (and (and (block_2_while_header_38_0 _n_3_0 _a_6_0 _elem_8_0 _11_0 i_20_0 bIndex_40_0 left_44_0 right_48_0 m_55_0 lIndex_97_0 found_101_0) (and (= expr_25_1 (< expr_23_0 expr_24_0)) (and (= expr_24_0 _n_3_0) (and (= expr_23_0 i_20_0) true)))) (not expr_25_1)) (block_4_137_0 _n_3_0 _a_6_0 _elem_8_0 _11_0 i_20_0 bIndex_40_0 left_44_0 right_48_0 m_55_0 lIndex_97_0 found_101_0)) :named block_2_while_header_38_0_to_block_4_137_0))
(rule (! (implies (and (and (block_3_while_body_37_0 _n_3_0 _a_6_0 _elem_8_0 _11_0 i_20_0 bIndex_40_0 left_44_0 right_48_0 m_55_0 lIndex_97_0 found_101_0) (and (implies true expr_35_1) (and (= expr_35_1 (>= expr_29_1 expr_34_1)) (and (<= expr_34_1 115792089237316195423570985008687907853269984665640564039457584007913129639935) (and (>= expr_34_1 0) (and (= expr_34_1 (select _a_6_0 expr_33_1)) (and (= expr_33_1 (ite (> (- expr_31_0 expr_32_0) 115792089237316195423570985008687907853269984665640564039457584007913129639935) (mod (- expr_31_0 expr_32_0) (+ (+ (- 0 0) 115792089237316195423570985008687907853269984665640564039457584007913129639935) 1)) (ite (< (- expr_31_0 expr_32_0) 0) (mod (- expr_31_0 expr_32_0) (+ (+ (- 0 0) 115792089237316195423570985008687907853269984665640564039457584007913129639935) 1)) (- expr_31_0 expr_32_0)))) (and (= expr_32_0 1) (and (= expr_31_0 i_20_0) (and (= expr_30_0 _a_6_0) (and (<= expr_29_1 115792089237316195423570985008687907853269984665640564039457584007913129639935) (and (>= expr_29_1 0) (and (= expr_29_1 (select _a_6_0 expr_28_0)) (and (= expr_28_0 i_20_0) (and (= expr_27_0 _a_6_0) true))))))))))))))) true) (block_2_while_header_38_0 _n_3_0 _a_6_0 _elem_8_0 _11_0 i_20_0 bIndex_40_0 left_44_0 right_48_0 m_55_0 lIndex_97_0 found_101_0)) :named block_3_while_body_37_0_to_block_2_while_header_38_0))
(declare-rel |block_5_while_header_95_0| (Int (Array Int Int) Int Int Int Int Int Int Int Int Bool ))
(declare-rel |block_6_while_body_94_0| (Int (Array Int Int) Int Int Int Int Int Int Int Int Bool ))
(declare-rel |block_7_137_0| (Int (Array Int Int) Int Int Int Int Int Int Int Int Bool ))
(rule (! (implies (and (and (block_4_137_0 _n_3_0 _a_6_0 _elem_8_0 _11_0 i_20_0 bIndex_40_0 left_44_0 right_48_0 m_55_0 lIndex_97_0 found_101_0) (and (= right_48_1 expr_49_0) (and (= expr_49_0 _n_3_0) (and (= left_44_1 expr_45_0) (and (= expr_45_0 0) (and (= bIndex_40_1 expr_41_0) (and (= expr_41_0 _n_3_0) true))))))) true) (block_5_while_header_95_0 _n_3_0 _a_6_0 _elem_8_0 _11_0 i_20_0 bIndex_40_1 left_44_1 right_48_1 m_55_0 lIndex_97_0 found_101_0)) :named block_4_137_0_to_block_5_while_header_95_0))
(rule (! (implies (and (and (block_5_while_header_95_0 _n_3_0 _a_6_0 _elem_8_0 _11_0 i_20_0 bIndex_40_0 left_44_0 right_48_0 m_55_0 lIndex_97_0 found_101_0) (and (= expr_53_1 (< expr_51_0 expr_52_0)) (and (= expr_52_0 right_48_0) (and (= expr_51_0 left_44_0) true)))) expr_53_1) (block_6_while_body_94_0 _n_3_0 _a_6_0 _elem_8_0 _11_0 i_20_0 bIndex_40_0 left_44_0 right_48_0 m_55_0 lIndex_97_0 found_101_0)) :named block_5_while_header_95_0_to_block_6_while_body_94_0))
(rule (! (implies (and (and (block_5_while_header_95_0 _n_3_0 _a_6_0 _elem_8_0 _11_0 i_20_0 bIndex_40_0 left_44_0 right_48_0 m_55_0 lIndex_97_0 found_101_0) (and (= expr_53_1 (< expr_51_0 expr_52_0)) (and (= expr_52_0 right_48_0) (and (= expr_51_0 left_44_0) true)))) (not expr_53_1)) (block_7_137_0 _n_3_0 _a_6_0 _elem_8_0 _11_0 i_20_0 bIndex_40_0 left_44_0 right_48_0 m_55_0 lIndex_97_0 found_101_0)) :named block_5_while_header_95_0_to_block_7_137_0))
(declare-rel |block_8_if_header_93_0| (Int (Array Int Int) Int Int Int Int Int Int Int Int Bool ))
(declare-rel |block_9_if_true_76_0| (Int (Array Int Int) Int Int Int Int Int Int Int Int Bool ))
(declare-rel |block_10_if_false_92_0| (Int (Array Int Int) Int Int Int Int Int Int Int Int Bool ))
(declare-rel |block_11_137_0| (Int (Array Int Int) Int Int Int Int Int Int Int Int Bool ))
(rule (! (implies (and (and (block_6_while_body_94_0 _n_3_0 _a_6_0 _elem_8_0 _11_0 i_20_0 bIndex_40_0 left_44_0 right_48_0 m_55_0 lIndex_97_0 found_101_0) (and (= m_55_1 expr_61_1) (and (= expr_61_1 (ite (> (/ expr_59_1 expr_60_0) 115792089237316195423570985008687907853269984665640564039457584007913129639935) (mod (/ expr_59_1 expr_60_0) (+ (+ (- 0 0) 115792089237316195423570985008687907853269984665640564039457584007913129639935) 1)) (ite (< (/ expr_59_1 expr_60_0) 0) (mod (/ expr_59_1 expr_60_0) (+ (+ (- 0 0) 115792089237316195423570985008687907853269984665640564039457584007913129639935) 1)) (/ expr_59_1 expr_60_0)))) (and (not (= expr_60_0 0)) (and (= expr_60_0 2) (and (= expr_59_1 expr_58_1) (and (= expr_58_1 (ite (> (+ expr_56_0 expr_57_0) 115792089237316195423570985008687907853269984665640564039457584007913129639935) (mod (+ expr_56_0 expr_57_0) (+ (+ (- 0 0) 115792089237316195423570985008687907853269984665640564039457584007913129639935) 1)) (ite (< (+ expr_56_0 expr_57_0) 0) (mod (+ expr_56_0 expr_57_0) (+ (+ (- 0 0) 115792089237316195423570985008687907853269984665640564039457584007913129639935) 1)) (+ expr_56_0 expr_57_0)))) (and (= expr_57_0 right_48_0) (and (= expr_56_0 left_44_0) true))))))))) true) (block_8_if_header_93_0 _n_3_0 _a_6_0 _elem_8_0 _11_0 i_20_0 bIndex_40_0 left_44_0 right_48_0 m_55_1 lIndex_97_0 found_101_0)) :named block_6_while_body_94_0_to_block_8_if_header_93_0))
(rule (! (implies (and (and (block_8_if_header_93_0 _n_3_0 _a_6_0 _elem_8_0 _11_0 i_20_0 bIndex_40_0 left_44_0 right_48_0 m_55_0 lIndex_97_0 found_101_0) (and (= expr_67_1 (= expr_65_1 expr_66_0)) (and (= expr_66_0 _elem_8_0) (and (<= expr_65_1 115792089237316195423570985008687907853269984665640564039457584007913129639935) (and (>= expr_65_1 0) (and (= expr_65_1 (select _a_6_0 expr_64_0)) (and (= expr_64_0 m_55_0) (and (= expr_63_0 _a_6_0) true)))))))) expr_67_1) (block_9_if_true_76_0 _n_3_0 _a_6_0 _elem_8_0 _11_0 i_20_0 bIndex_40_0 left_44_0 right_48_0 m_55_0 lIndex_97_0 found_101_0)) :named block_8_if_header_93_0_to_block_9_if_true_76_0))
(rule (! (implies (and (and (block_8_if_header_93_0 _n_3_0 _a_6_0 _elem_8_0 _11_0 i_20_0 bIndex_40_0 left_44_0 right_48_0 m_55_0 lIndex_97_0 found_101_0) (and (= expr_67_1 (= expr_65_1 expr_66_0)) (and (= expr_66_0 _elem_8_0) (and (<= expr_65_1 115792089237316195423570985008687907853269984665640564039457584007913129639935) (and (>= expr_65_1 0) (and (= expr_65_1 (select _a_6_0 expr_64_0)) (and (= expr_64_0 m_55_0) (and (= expr_63_0 _a_6_0) true)))))))) (not expr_67_1)) (block_10_if_false_92_0 _n_3_0 _a_6_0 _elem_8_0 _11_0 i_20_0 bIndex_40_0 left_44_0 right_48_0 m_55_0 lIndex_97_0 found_101_0)) :named block_8_if_header_93_0_to_block_10_if_false_92_0))
(rule (! (implies (and (and (block_9_if_true_76_0 _n_3_0 _a_6_0 _elem_8_0 _11_0 i_20_0 bIndex_40_0 left_44_0 right_48_0 m_55_0 lIndex_97_0 found_101_0) (and (= left_44_1 expr_74_1) (and (= expr_74_1 expr_73_0) (and (= expr_73_0 right_48_0) (and (= bIndex_40_1 expr_70_1) (and (= expr_70_1 expr_69_0) (and (= expr_69_0 m_55_0) true))))))) true) (block_11_137_0 _n_3_0 _a_6_0 _elem_8_0 _11_0 i_20_0 bIndex_40_1 left_44_1 right_48_0 m_55_0 lIndex_97_0 found_101_0)) :named block_9_if_true_76_0_to_block_11_137_0))
(declare-rel |block_12_if_header_92_0| (Int (Array Int Int) Int Int Int Int Int Int Int Int Bool ))
(declare-rel |block_13_if_true_86_0| (Int (Array Int Int) Int Int Int Int Int Int Int Int Bool ))
(declare-rel |block_14_if_false_91_0| (Int (Array Int Int) Int Int Int Int Int Int Int Int Bool ))
(declare-rel |block_15_137_0| (Int (Array Int Int) Int Int Int Int Int Int Int Int Bool ))
(rule (! (implies (and (and (block_10_if_false_92_0 _n_3_0 _a_6_0 _elem_8_0 _11_0 i_20_0 bIndex_40_0 left_44_0 right_48_0 m_55_0 lIndex_97_0 found_101_0) true) true) (block_12_if_header_92_0 _n_3_0 _a_6_0 _elem_8_0 _11_0 i_20_0 bIndex_40_0 left_44_0 right_48_0 m_55_0 lIndex_97_0 found_101_0)) :named block_10_if_false_92_0_to_block_12_if_header_92_0))
(rule (! (implies (and (and (block_12_if_header_92_0 _n_3_0 _a_6_0 _elem_8_0 _11_0 i_20_0 bIndex_40_0 left_44_0 right_48_0 m_55_0 lIndex_97_0 found_101_0) (and (= expr_81_1 (> expr_79_1 expr_80_0)) (and (= expr_80_0 _elem_8_0) (and (<= expr_79_1 115792089237316195423570985008687907853269984665640564039457584007913129639935) (and (>= expr_79_1 0) (and (= expr_79_1 (select _a_6_0 expr_78_0)) (and (= expr_78_0 m_55_0) (and (= expr_77_0 _a_6_0) true)))))))) expr_81_1) (block_13_if_true_86_0 _n_3_0 _a_6_0 _elem_8_0 _11_0 i_20_0 bIndex_40_0 left_44_0 right_48_0 m_55_0 lIndex_97_0 found_101_0)) :named block_12_if_header_92_0_to_block_13_if_true_86_0))
(rule (! (implies (and (and (block_12_if_header_92_0 _n_3_0 _a_6_0 _elem_8_0 _11_0 i_20_0 bIndex_40_0 left_44_0 right_48_0 m_55_0 lIndex_97_0 found_101_0) (and (= expr_81_1 (> expr_79_1 expr_80_0)) (and (= expr_80_0 _elem_8_0) (and (<= expr_79_1 115792089237316195423570985008687907853269984665640564039457584007913129639935) (and (>= expr_79_1 0) (and (= expr_79_1 (select _a_6_0 expr_78_0)) (and (= expr_78_0 m_55_0) (and (= expr_77_0 _a_6_0) true)))))))) (not expr_81_1)) (block_14_if_false_91_0 _n_3_0 _a_6_0 _elem_8_0 _11_0 i_20_0 bIndex_40_0 left_44_0 right_48_0 m_55_0 lIndex_97_0 found_101_0)) :named block_12_if_header_92_0_to_block_14_if_false_91_0))
(rule (! (implies (and (and (block_13_if_true_86_0 _n_3_0 _a_6_0 _elem_8_0 _11_0 i_20_0 bIndex_40_0 left_44_0 right_48_0 m_55_0 lIndex_97_0 found_101_0) (and (= right_48_1 expr_84_1) (and (= expr_84_1 expr_83_0) (and (= expr_83_0 m_55_0) true)))) true) (block_15_137_0 _n_3_0 _a_6_0 _elem_8_0 _11_0 i_20_0 bIndex_40_0 left_44_0 right_48_1 m_55_0 lIndex_97_0 found_101_0)) :named block_13_if_true_86_0_to_block_15_137_0))
(rule (! (implies (and (and (block_14_if_false_91_0 _n_3_0 _a_6_0 _elem_8_0 _11_0 i_20_0 bIndex_40_0 left_44_0 right_48_0 m_55_0 lIndex_97_0 found_101_0) (and (= left_44_1 expr_89_1) (and (= expr_89_1 expr_88_0) (and (= expr_88_0 m_55_0) true)))) true) (block_15_137_0 _n_3_0 _a_6_0 _elem_8_0 _11_0 i_20_0 bIndex_40_0 left_44_1 right_48_0 m_55_0 lIndex_97_0 found_101_0)) :named block_14_if_false_91_0_to_block_15_137_0))
(rule (! (implies (and (and (block_15_137_0 _n_3_0 _a_6_0 _elem_8_0 _11_0 i_20_0 bIndex_40_0 left_44_0 right_48_0 m_55_0 lIndex_97_0 found_101_0) true) true) (block_11_137_0 _n_3_0 _a_6_0 _elem_8_0 _11_0 i_20_0 bIndex_40_0 left_44_0 right_48_0 m_55_0 lIndex_97_0 found_101_0)) :named block_15_137_0_to_block_11_137_0))
(rule (! (implies (and (and (block_11_137_0 _n_3_0 _a_6_0 _elem_8_0 _11_0 i_20_0 bIndex_40_0 left_44_0 right_48_0 m_55_0 lIndex_97_0 found_101_0) true) true) (block_5_while_header_95_0 _n_3_0 _a_6_0 _elem_8_0 _11_0 i_20_0 bIndex_40_0 left_44_0 right_48_0 m_55_0 lIndex_97_0 found_101_0)) :named block_11_137_0_to_block_5_while_header_95_0))
(declare-rel |block_16_while_header_126_0| (Int (Array Int Int) Int Int Int Int Int Int Int Int Bool ))
(declare-rel |block_17_while_body_125_0| (Int (Array Int Int) Int Int Int Int Int Int Int Int Bool ))
(declare-rel |block_18_137_0| (Int (Array Int Int) Int Int Int Int Int Int Int Int Bool ))
(rule (! (implies (and (and (block_7_137_0 _n_3_0 _a_6_0 _elem_8_0 _11_0 i_20_0 bIndex_40_0 left_44_0 right_48_0 m_55_0 lIndex_97_0 found_101_0) (and (= found_101_1 expr_102_0) (and (= expr_102_0 false) (and (= lIndex_97_1 expr_98_0) (and (= expr_98_0 0) true))))) true) (block_16_while_header_126_0 _n_3_0 _a_6_0 _elem_8_0 _11_0 i_20_0 bIndex_40_0 left_44_0 right_48_0 m_55_0 lIndex_97_1 found_101_1)) :named block_7_137_0_to_block_16_while_header_126_0))
(rule (! (implies (and (and (block_16_while_header_126_0 _n_3_0 _a_6_0 _elem_8_0 _11_0 i_20_0 bIndex_40_0 left_44_0 right_48_0 m_55_0 lIndex_97_0 found_101_0) (and (= expr_109_0 (and expr_105_1 expr_108_1)) (and (= expr_108_1 (< expr_106_0 expr_107_0)) (and (= expr_107_0 _n_3_0) (and (= expr_106_0 lIndex_97_0) (and (= expr_105_1 (not expr_104_0)) (and (= expr_104_0 found_101_0) true))))))) expr_109_0) (block_17_while_body_125_0 _n_3_0 _a_6_0 _elem_8_0 _11_0 i_20_0 bIndex_40_0 left_44_0 right_48_0 m_55_0 lIndex_97_0 found_101_0)) :named block_16_while_header_126_0_to_block_17_while_body_125_0))
(rule (! (implies (and (and (block_16_while_header_126_0 _n_3_0 _a_6_0 _elem_8_0 _11_0 i_20_0 bIndex_40_0 left_44_0 right_48_0 m_55_0 lIndex_97_0 found_101_0) (and (= expr_109_0 (and expr_105_1 expr_108_1)) (and (= expr_108_1 (< expr_106_0 expr_107_0)) (and (= expr_107_0 _n_3_0) (and (= expr_106_0 lIndex_97_0) (and (= expr_105_1 (not expr_104_0)) (and (= expr_104_0 found_101_0) true))))))) (not expr_109_0)) (block_18_137_0 _n_3_0 _a_6_0 _elem_8_0 _11_0 i_20_0 bIndex_40_0 left_44_0 right_48_0 m_55_0 lIndex_97_0 found_101_0)) :named block_16_while_header_126_0_to_block_18_137_0))
(declare-rel |block_19_if_header_124_0| (Int (Array Int Int) Int Int Int Int Int Int Int Int Bool ))
(declare-rel |block_20_if_true_119_0| (Int (Array Int Int) Int Int Int Int Int Int Int Int Bool ))
(declare-rel |block_21_if_false_123_0| (Int (Array Int Int) Int Int Int Int Int Int Int Int Bool ))
(declare-rel |block_22_137_0| (Int (Array Int Int) Int Int Int Int Int Int Int Int Bool ))
(rule (! (implies (and (and (block_17_while_body_125_0 _n_3_0 _a_6_0 _elem_8_0 _11_0 i_20_0 bIndex_40_0 left_44_0 right_48_0 m_55_0 lIndex_97_0 found_101_0) true) true) (block_19_if_header_124_0 _n_3_0 _a_6_0 _elem_8_0 _11_0 i_20_0 bIndex_40_0 left_44_0 right_48_0 m_55_0 lIndex_97_0 found_101_0)) :named block_17_while_body_125_0_to_block_19_if_header_124_0))
(rule (! (implies (and (and (block_19_if_header_124_0 _n_3_0 _a_6_0 _elem_8_0 _11_0 i_20_0 bIndex_40_0 left_44_0 right_48_0 m_55_0 lIndex_97_0 found_101_0) (and (= expr_114_1 (= expr_112_1 expr_113_0)) (and (= expr_113_0 _elem_8_0) (and (<= expr_112_1 115792089237316195423570985008687907853269984665640564039457584007913129639935) (and (>= expr_112_1 0) (and (= expr_112_1 (select _a_6_0 expr_111_0)) (and (= expr_111_0 lIndex_97_0) (and (= expr_110_0 _a_6_0) true)))))))) expr_114_1) (block_20_if_true_119_0 _n_3_0 _a_6_0 _elem_8_0 _11_0 i_20_0 bIndex_40_0 left_44_0 right_48_0 m_55_0 lIndex_97_0 found_101_0)) :named block_19_if_header_124_0_to_block_20_if_true_119_0))
(rule (! (implies (and (and (block_19_if_header_124_0 _n_3_0 _a_6_0 _elem_8_0 _11_0 i_20_0 bIndex_40_0 left_44_0 right_48_0 m_55_0 lIndex_97_0 found_101_0) (and (= expr_114_1 (= expr_112_1 expr_113_0)) (and (= expr_113_0 _elem_8_0) (and (<= expr_112_1 115792089237316195423570985008687907853269984665640564039457584007913129639935) (and (>= expr_112_1 0) (and (= expr_112_1 (select _a_6_0 expr_111_0)) (and (= expr_111_0 lIndex_97_0) (and (= expr_110_0 _a_6_0) true)))))))) (not expr_114_1)) (block_21_if_false_123_0 _n_3_0 _a_6_0 _elem_8_0 _11_0 i_20_0 bIndex_40_0 left_44_0 right_48_0 m_55_0 lIndex_97_0 found_101_0)) :named block_19_if_header_124_0_to_block_21_if_false_123_0))
(rule (! (implies (and (and (block_20_if_true_119_0 _n_3_0 _a_6_0 _elem_8_0 _11_0 i_20_0 bIndex_40_0 left_44_0 right_48_0 m_55_0 lIndex_97_0 found_101_0) (and (= found_101_1 expr_117_1) (and (= expr_117_1 expr_116_0) (and (= expr_116_0 true) true)))) true) (block_22_137_0 _n_3_0 _a_6_0 _elem_8_0 _11_0 i_20_0 bIndex_40_0 left_44_0 right_48_0 m_55_0 lIndex_97_0 found_101_1)) :named block_20_if_true_119_0_to_block_22_137_0))
(rule (! (implies (and (and (block_21_if_false_123_0 _n_3_0 _a_6_0 _elem_8_0 _11_0 i_20_0 bIndex_40_0 left_44_0 right_48_0 m_55_0 lIndex_97_0 found_101_0) (and (= lIndex_97_1 (+ lIndex_97_0 1)) (and (= expr_121_1 (+ lIndex_97_0 1)) true))) true) (block_22_137_0 _n_3_0 _a_6_0 _elem_8_0 _11_0 i_20_0 bIndex_40_0 left_44_0 right_48_0 m_55_0 lIndex_97_1 found_101_0)) :named block_21_if_false_123_0_to_block_22_137_0))
(rule (! (implies (and (and (block_22_137_0 _n_3_0 _a_6_0 _elem_8_0 _11_0 i_20_0 bIndex_40_0 left_44_0 right_48_0 m_55_0 lIndex_97_0 found_101_0) true) true) (block_16_while_header_126_0 _n_3_0 _a_6_0 _elem_8_0 _11_0 i_20_0 bIndex_40_0 left_44_0 right_48_0 m_55_0 lIndex_97_0 found_101_0)) :named block_22_137_0_to_block_16_while_header_126_0))
(declare-rel |block_23_if_header_134_0| (Int (Array Int Int) Int Int Int Int Int Int Int Int Bool ))
(declare-rel |block_24_if_true_133_0| (Int (Array Int Int) Int Int Int Int Int Int Int Int Bool ))
(declare-rel |block_25_137_0| (Int (Array Int Int) Int Int Int Int Int Int Int Int Bool ))
(rule (! (implies (and (and (block_18_137_0 _n_3_0 _a_6_0 _elem_8_0 _11_0 i_20_0 bIndex_40_0 left_44_0 right_48_0 m_55_0 lIndex_97_0 found_101_0) true) true) (block_23_if_header_134_0 _n_3_0 _a_6_0 _elem_8_0 _11_0 i_20_0 bIndex_40_0 left_44_0 right_48_0 m_55_0 lIndex_97_0 found_101_0)) :named block_18_137_0_to_block_23_if_header_134_0))
(rule (! (implies (and (and (block_23_if_header_134_0 _n_3_0 _a_6_0 _elem_8_0 _11_0 i_20_0 bIndex_40_0 left_44_0 right_48_0 m_55_0 lIndex_97_0 found_101_0) (and (= expr_127_0 found_101_0) true)) expr_127_0) (block_24_if_true_133_0 _n_3_0 _a_6_0 _elem_8_0 _11_0 i_20_0 bIndex_40_0 left_44_0 right_48_0 m_55_0 lIndex_97_0 found_101_0)) :named block_23_if_header_134_0_to_block_24_if_true_133_0))
(rule (! (implies (and (and (block_23_if_header_134_0 _n_3_0 _a_6_0 _elem_8_0 _11_0 i_20_0 bIndex_40_0 left_44_0 right_48_0 m_55_0 lIndex_97_0 found_101_0) (and (= expr_127_0 found_101_0) true)) (not expr_127_0)) (block_25_137_0 _n_3_0 _a_6_0 _elem_8_0 _11_0 i_20_0 bIndex_40_0 left_44_0 right_48_0 m_55_0 lIndex_97_0 found_101_0)) :named block_23_if_header_134_0_to_block_25_137_0))
(declare-rel |error_1| ())
(rule (! (implies (and (and (block_24_if_true_133_0 _n_3_0 _a_6_0 _elem_8_0 _11_0 i_20_0 bIndex_40_0 left_44_0 right_48_0 m_55_0 lIndex_97_0 found_101_0) (and (= expr_131_1 (= expr_129_0 expr_130_0)) (and (= expr_130_0 bIndex_40_0) (and (= expr_129_0 lIndex_97_0) true)))) (and true (not expr_131_1))) error_1) :named block_24_if_true_133_0_to_error_1))
(rule (! (implies (and (and (block_24_if_true_133_0 _n_3_0 _a_6_0 _elem_8_0 _11_0 i_20_0 bIndex_40_0 left_44_0 right_48_0 m_55_0 lIndex_97_0 found_101_0) (and (implies true expr_131_1) (and (= expr_131_1 (= expr_129_0 expr_130_0)) (and (= expr_130_0 bIndex_40_0) (and (= expr_129_0 lIndex_97_0) true))))) true) (block_25_137_0 _n_3_0 _a_6_0 _elem_8_0 _11_0 i_20_0 bIndex_40_0 left_44_0 right_48_0 m_55_0 lIndex_97_0 found_101_0)) :named block_24_if_true_133_0_to_block_25_137_0))
(rule (! (implies (and (and (block_25_137_0 _n_3_0 _a_6_0 _elem_8_0 _11_0 i_20_0 bIndex_40_0 left_44_0 right_48_0 m_55_0 lIndex_97_0 found_101_0) (and (= expr_135_0 _11_1) (and (= expr_135_0 bIndex_40_0) true))) true) interface_C_139_0) :named block_25_137_0_to_interface_C_139_0))

(query error_1 :print-certificate true)
